min: 84 x1_1 + 55 x1_2 + 15 x1_3 + 14 x1_4 + 13 x1_5 + 28 x1_6 + 35 x2_1 + 10 x2_2 + 28 x2_3 + 65 x2_4 + 100 x2_5 + 62 x2_6 + 17 x3_1 + 9 x3_2 + 29 x3_3 + 32 x3_4 + 73 x3_5 + 76 x3_6 + 1 x4_1 + 60 x4_2 + 16 x4_3 + 37 x4_4 + 88 x4_5 + 13 x4_6 + 43 x5_1 + 46 x5_2 + 92 x5_3 + 49 x5_4 + 63 x5_5 + 22 x5_6 + 43 x6_1 + 79 x6_2 + 33 x6_3 + 17 x6_4 + 7 x6_5 + 43 x6_6;

st
x1_1 + x1_2 + x1_3 + x1_4 + x1_5 + x1_6 = 4922;
x2_1 + x2_2 + x2_3 + x2_4 + x2_5 + x2_6 = 4969;
x3_1 + x3_2 + x3_3 + x3_4 + x3_5 + x3_6 = 3430;
x4_1 + x4_2 + x4_3 + x4_4 + x4_5 + x4_6 = 3800;
x5_1 + x5_2 + x5_3 + x5_4 + x5_5 + x5_6 = 2642;
x6_1 + x6_2 + x6_3 + x6_4 + x6_5 + x6_6 = 196;

x1_1 + x2_1 + x3_1 + x4_1 + x5_1 + x6_1 = 10446;
x1_2 + x2_2 + x3_2 + x4_2 + x5_2 + x6_2 = 529;
x1_3 + x2_3 + x3_3 + x4_3 + x5_3 + x6_3 = 360;
x1_4 + x2_4 + x3_4 + x4_4 + x5_4 + x6_4 = 3081;
x1_5 + x2_5 + x3_5 + x4_5 + x5_5 + x6_5 = 4567;
x1_6 + x2_6 + x3_6 + x4_6 + x5_6 + x6_6 = 976;

x1_1 >= 0;
x1_2 >= 0;
x1_3 >= 0;
x1_4 >= 0;
x1_5 >= 0;
x1_6 >= 0;
x2_1 >= 0;
x2_2 >= 0;
x2_3 >= 0;
x2_4 >= 0;
x2_5 >= 0;
x2_6 >= 0;
x3_1 >= 0;
x3_2 >= 0;
x3_3 >= 0;
x3_4 >= 0;
x3_5 >= 0;
x3_6 >= 0;
x4_1 >= 0;
x4_2 >= 0;
x4_3 >= 0;
x4_4 >= 0;
x4_5 >= 0;
x4_6 >= 0;
x5_1 >= 0;
x5_2 >= 0;
x5_3 >= 0;
x5_4 >= 0;
x5_5 >= 0;
x5_6 >= 0;
x6_1 >= 0;
x6_2 >= 0;
x6_3 >= 0;
x6_4 >= 0;
x6_5 >= 0;
x6_6 >= 0;